Version identifier: 20.1.0.0 | 2020-11-10 | 9bedb6d68
Tried aggregator 2 times.
MIP Presolve eliminated 892 rows and 521 columns.
MIP Presolve modified 1732 coefficients.
Aggregator did 106 substitutions.
Reduced MIP has 708 rows, 580 columns, and 2251 nonzeros.
Reduced MIP has 150 binaries, 430 generals, 0 SOSs, and 0 indicators.
Presolve time = 0.01 sec. (3.74 ticks)
Found incumbent of value 34.000000 after 0.02 sec. (6.40 ticks)
Probing fixed 20 vars, tightened 171 bounds.
Probing time = 0.00 sec. (0.54 ticks)
Tried aggregator 2 times.
Detecting symmetries...
MIP Presolve eliminated 300 rows and 22 columns.
MIP Presolve modified 41 coefficients.
Aggregator did 2 substitutions.
Reduced MIP has 406 rows, 556 columns, and 1325 nonzeros.
Reduced MIP has 223 binaries, 333 generals, 0 SOSs, and 0 indicators.
Presolve time = 0.00 sec. (1.87 ticks)
Probing time = 0.00 sec. (0.12 ticks)
Clique table members: 21.
MIP emphasis: balance optimality and feasibility.
MIP search method: dynamic search.
Parallel mode: deterministic, using up to 24 threads.
Root relaxation solution time = 0.00 sec. (1.20 ticks)

        Nodes                                         Cuts/
   Node  Left     Objective  IInf  Best Integer    Best Bound    ItCnt     Gap

*     0+    0                           34.0000        0.0000           100.00%
*     0+    0                           25.0000        0.0000           100.00%
      0     0        0.0000    33       25.0000        0.0000      140  100.00%
*     0+    0                            9.0000        0.0000           100.00%
      0     0        0.0000    39        9.0000      Cuts: 51      235  100.00%
      0     0        0.7778    67        9.0000      Cuts: 37      283   91.36%
      0     0        1.0000    81        9.0000      Cuts: 34      319   88.89%
      0     0        1.2222   106        9.0000      Cuts: 38      362   86.42%
      0     0        1.2857   143        9.0000      Cuts: 35      428   85.71%
      0     0        2.0000   150        9.0000      Cuts: 43      500   77.78%
      0     0        2.0000   157        9.0000      Cuts: 51      550   77.78%
*     0+    0                            8.0000        2.0000            75.00%
      0     0        cutoff              8.0000        8.0000      550    0.00%
Elapsed time = 0.13 sec. (56.16 ticks, tree = 0.01 MB, solutions = 4)

Implied bound cuts applied:  11
Flow cuts applied:  8
Mixed integer rounding cuts applied:  7
Zero-half cuts applied:  27
Gomory fractional cuts applied:  5

Root node processing (before b&c):
  Real time             =    0.13 sec. (56.23 ticks)
Parallel b&c, 24 threads:
  Real time             =    0.00 sec. (0.00 ticks)
  Sync time (average)   =    0.00 sec.
  Wait time (average)   =    0.00 sec.
                          ------------
Total (root+branch&cut) =    0.13 sec. (56.23 ticks)

Solution status = Optimal
Solution LB = 8
Solution UB = 8
Runtime = 0.135024 seconds
	Command being timed: "/home/min/git_repos/CS598MEBProject/CNT-ILP/build/cnt -s 2 ./output/k6_n20/simC_c1_k6_n20_u3_s2_del02.input-left.cnp"
	User time (seconds): 1.06
	System time (seconds): 0.05
	Percent of CPU this job got: 643%
	Elapsed (wall clock) time (h:mm:ss or m:ss): 0:00.17
	Average shared text size (kbytes): 0
	Average unshared data size (kbytes): 0
	Average stack size (kbytes): 0
	Average total size (kbytes): 0
	Maximum resident set size (kbytes): 55832
	Average resident set size (kbytes): 0
	Major (requiring I/O) page faults: 0
	Minor (reclaiming a frame) page faults: 11081
	Voluntary context switches: 2620
	Involuntary context switches: 124
	Swaps: 0
	File system inputs: 0
	File system outputs: 16
	Socket messages sent: 0
	Socket messages received: 0
	Signals delivered: 0
	Page size (bytes): 4096
	Exit status: 0
